Ta4 C4
1.0
       13.4462280273         0.0000000000         0.0000000000
        0.0000000000        13.4462280273         0.0000000000
        0.0000000000         0.0000000000        13.4462280273
   Ta    C
  108  108
Cartesian
     0.000000000         0.000000000         0.000000000
     0.000000000         0.000000000         4.482076143
     0.000000000         0.000000000         8.964152285
     0.000000000         4.482076143         0.000000000
     0.000000000         4.482076143         4.482076143
     0.000000000         4.482076143         8.964152285
     0.000000000         8.964152285         0.000000000
     0.000000000         8.964152285         4.482076143
     0.000000000         8.964152285         8.964152285
     4.482076143         0.000000000         0.000000000
     4.482076143         0.000000000         4.482076143
     4.482076143         0.000000000         8.964152285
     4.482076143         4.482076143         0.000000000
     4.482076143         4.482076143         4.482076143
     4.482076143         4.482076143         8.964152285
     4.482076143         8.964152285         0.000000000
     4.482076143         8.964152285         4.482076143
     4.482076143         8.964152285         8.964152285
     8.964152285         0.000000000         0.000000000
     8.964152285         0.000000000         4.482076143
     8.964152285         0.000000000         8.964152285
     8.964152285         4.482076143         0.000000000
     8.964152285         4.482076143         4.482076143
     8.964152285         4.482076143         8.964152285
     8.964152285         8.964152285         0.000000000
     8.964152285         8.964152285         4.482076143
     8.964152285         8.964152285         8.964152285
     0.000000000         2.241038071         2.241038071
     0.000000000         2.241038071         6.723114014
     0.000000000         2.241038071        11.205189756
     0.000000000         6.723114014         2.241038071
     0.000000000         6.723114014         6.723114014
     0.000000000         6.723114014        11.205189756
     0.000000000        11.205189756         2.241038071
     0.000000000        11.205189756         6.723114014
     0.000000000        11.205189756        11.205189756
     4.482076143         2.241038071         2.241038071
     4.482076143         2.241038071         6.723114014
     4.482076143         2.241038071        11.205189756
     4.482076143         6.723114014         2.241038071
     4.482076143         6.723114014         6.723114014
     4.482076143         6.723114014        11.205189756
     4.482076143        11.205189756         2.241038071
     4.482076143        11.205189756         6.723114014
     4.482076143        11.205189756        11.205189756
     8.964152285         2.241038071         2.241038071
     8.964152285         2.241038071         6.723114014
     8.964152285         2.241038071        11.205189756
     8.964152285         6.723114014         2.241038071
     8.964152285         6.723114014         6.723114014
     8.964152285         6.723114014        11.205189756
     8.964152285        11.205189756         2.241038071
     8.964152285        11.205189756         6.723114014
     8.964152285        11.205189756        11.205189756
     2.241038071         0.000000000         2.241038071
     2.241038071         0.000000000         6.723114014
     2.241038071         0.000000000        11.205189756
     2.241038071         4.482076143         2.241038071
     2.241038071         4.482076143         6.723114014
     2.241038071         4.482076143        11.205189756
     2.241038071         8.964152285         2.241038071
     2.241038071         8.964152285         6.723114014
     2.241038071         8.964152285        11.205189756
     6.723114014         0.000000000         2.241038071
     6.723114014         0.000000000         6.723114014
     6.723114014         0.000000000        11.205189756
     6.723114014         4.482076143         2.241038071
     6.723114014         4.482076143         6.723114014
     6.723114014         4.482076143        11.205189756
     6.723114014         8.964152285         2.241038071
     6.723114014         8.964152285         6.723114014
     6.723114014         8.964152285        11.205189756
    11.205189756         0.000000000         2.241038071
    11.205189756         0.000000000         6.723114014
    11.205189756         0.000000000        11.205189756
    11.205189756         4.482076143         2.241038071
    11.205189756         4.482076143         6.723114014
    11.205189756         4.482076143        11.205189756
    11.205189756         8.964152285         2.241038071
    11.205189756         8.964152285         6.723114014
    11.205189756         8.964152285        11.205189756
     2.241038071         2.241038071         0.000000000
     2.241038071         2.241038071         4.482076143
     2.241038071         2.241038071         8.964152285
     2.241038071         6.723114014         0.000000000
     2.241038071         6.723114014         4.482076143
     2.241038071         6.723114014         8.964152285
     2.241038071        11.205189756         0.000000000
     2.241038071        11.205189756         4.482076143
     2.241038071        11.205189756         8.964152285
     6.723114014         2.241038071         0.000000000
     6.723114014         2.241038071         4.482076143
     6.723114014         2.241038071         8.964152285
     6.723114014         6.723114014         0.000000000
     6.723114014         6.723114014         4.482076143
     6.723114014         6.723114014         8.964152285
     6.723114014        11.205189756         0.000000000
     6.723114014        11.205189756         4.482076143
     6.723114014        11.205189756         8.964152285
    11.205189756         2.241038071         0.000000000
    11.205189756         2.241038071         4.482076143
    11.205189756         2.241038071         8.964152285
    11.205189756         6.723114014         0.000000000
    11.205189756         6.723114014         4.482076143
    11.205189756         6.723114014         8.964152285
    11.205189756        11.205189756         0.000000000
    11.205189756        11.205189756         4.482076143
    11.205189756        11.205189756         8.964152285
     2.241038071         0.000000000         0.000000000
     2.241038071         0.000000000         4.482076143
     2.241038071         0.000000000         8.964152285
     2.241038071         4.482076143         0.000000000
     2.241038071         4.482076143         4.482076143
     2.241038071         4.482076143         8.964152285
     2.241038071         8.964152285         0.000000000
     2.241038071         8.964152285         4.482076143
     2.241038071         8.964152285         8.964152285
     6.723114014         0.000000000         0.000000000
     6.723114014         0.000000000         4.482076143
     6.723114014         0.000000000         8.964152285
     6.723114014         4.482076143         0.000000000
     6.723114014         4.482076143         4.482076143
     6.723114014         4.482076143         8.964152285
     6.723114014         8.964152285         0.000000000
     6.723114014         8.964152285         4.482076143
     6.723114014         8.964152285         8.964152285
    11.205189756         0.000000000         0.000000000
    11.205189756         0.000000000         4.482076143
    11.205189756         0.000000000         8.964152285
    11.205189756         4.482076143         0.000000000
    11.205189756         4.482076143         4.482076143
    11.205189756         4.482076143         8.964152285
    11.205189756         8.964152285         0.000000000
    11.205189756         8.964152285         4.482076143
    11.205189756         8.964152285         8.964152285
     2.241038071         2.241038071         2.241038071
     2.241038071         2.241038071         6.723114014
     2.241038071         2.241038071        11.205189756
     2.241038071         6.723114014         2.241038071
     2.241038071         6.723114014         6.723114014
     2.241038071         6.723114014        11.205189756
     2.241038071        11.205189756         2.241038071
     2.241038071        11.205189756         6.723114014
     2.241038071        11.205189756        11.205189756
     6.723114014         2.241038071         2.241038071
     6.723114014         2.241038071         6.723114014
     6.723114014         2.241038071        11.205189756
     6.723114014         6.723114014         2.241038071
     6.723114014         6.723114014         6.723114014
     6.723114014         6.723114014        11.205189756
     6.723114014        11.205189756         2.241038071
     6.723114014        11.205189756         6.723114014
     6.723114014        11.205189756        11.205189756
    11.205189756         2.241038071         2.241038071
    11.205189756         2.241038071         6.723114014
    11.205189756         2.241038071        11.205189756
    11.205189756         6.723114014         2.241038071
    11.205189756         6.723114014         6.723114014
    11.205189756         6.723114014        11.205189756
    11.205189756        11.205189756         2.241038071
    11.205189756        11.205189756         6.723114014
    11.205189756        11.205189756        11.205189756
     0.000000000         0.000000000         2.241038071
     0.000000000         0.000000000         6.723114014
     0.000000000         0.000000000        11.205189756
     0.000000000         4.482076143         2.241038071
     0.000000000         4.482076143         6.723114014
     0.000000000         4.482076143        11.205189756
     0.000000000         8.964152285         2.241038071
     0.000000000         8.964152285         6.723114014
     0.000000000         8.964152285        11.205189756
     4.482076143         0.000000000         2.241038071
     4.482076143         0.000000000         6.723114014
     4.482076143         0.000000000        11.205189756
     4.482076143         4.482076143         2.241038071
     4.482076143         4.482076143         6.723114014
     4.482076143         4.482076143        11.205189756
     4.482076143         8.964152285         2.241038071
     4.482076143         8.964152285         6.723114014
     4.482076143         8.964152285        11.205189756
     8.964152285         0.000000000         2.241038071
     8.964152285         0.000000000         6.723114014
     8.964152285         0.000000000        11.205189756
     8.964152285         4.482076143         2.241038071
     8.964152285         4.482076143         6.723114014
     8.964152285         4.482076143        11.205189756
     8.964152285         8.964152285         2.241038071
     8.964152285         8.964152285         6.723114014
     8.964152285         8.964152285        11.205189756
     0.000000000         2.241038071         0.000000000
     0.000000000         2.241038071         4.482076143
     0.000000000         2.241038071         8.964152285
     0.000000000         6.723114014         0.000000000
     0.000000000         6.723114014         4.482076143
     0.000000000         6.723114014         8.964152285
     0.000000000        11.205189756         0.000000000
     0.000000000        11.205189756         4.482076143
     0.000000000        11.205189756         8.964152285
     4.482076143         2.241038071         0.000000000
     4.482076143         2.241038071         4.482076143
     4.482076143         2.241038071         8.964152285
     4.482076143         6.723114014         0.000000000
     4.482076143         6.723114014         4.482076143
     4.482076143         6.723114014         8.964152285
     4.482076143        11.205189756         0.000000000
     4.482076143        11.205189756         4.482076143
     4.482076143        11.205189756         8.964152285
     8.964152285         2.241038071         0.000000000
     8.964152285         2.241038071         4.482076143
     8.964152285         2.241038071         8.964152285
     8.964152285         6.723114014         0.000000000
     8.964152285         6.723114014         4.482076143
     8.964152285         6.723114014         8.964152285
     8.964152285        11.205189756         0.000000000
     8.964152285        11.205189756         4.482076143
     8.964152285        11.205189756         8.964152285
